generated by phonopy
   1.0
     0.0000000000000000    5.4358117995420600    5.4358117995420600
     5.4358117995420600    0.0000000000000000    5.4358117995420600
     5.4358117995420600    5.4358117995420600    0.0000000000000000
Si
  16
Direct
  0.1244057160774664  0.1245593099383110  0.1247058794277395
  0.6250781174543114  0.1250957704833794  0.1240472971989579
  0.1252539711176063  0.6250424578069773  0.1244569930749836 
  0.6243162298466455  0.6255642700755300  0.1255496851073114  
  0.1251586864681534  0.1241373537621658  0.6241223149204227  
  0.6248278571141097  0.1252574858528266  0.6244735690906584  
  0.1247971978360657  0.6245923376737089  0.6247117925788763  
  0.6246142280178901  0.6243915233691385  0.6245433039945170
  0.0001471909603273 -0.0008952564316926 -0.0004530376685972 
  0.5005161478523408  0.0002308016374480 -0.0006435530117308
  0.0004603723953295  0.4996185194636508 -0.0003446876020463
  0.4995461036196753  0.4993423713203522  0.0003438015196903
  0.0000747117256979 -0.0004139636642326  0.4998322900663605
  0.4996349447342164  0.0005218610869337  0.4992231061596192
  0.0004216870320671  0.5005296048979355  0.4992311123301602 
  0.5002030587666986  0.5003641901138365  0.4991362384884743

