Pb Te                                   
   1.0000000000000000     
    -0.0000094009866570    6.4433287073652004    6.4432528065182151
     6.4433454925031324   -0.0000123283614824    6.4432557356251818
     6.4433485715489462    6.4433347143853625   -0.0000154065782665
   Pb   Te
     8     8
Direct
  0.2485942839225359  0.2514406900616919  0.2502941205722635
  0.7512188254568883  0.2499042295166234  0.2499527028010391
  0.2497460288823916  0.7495754219302242  0.2505430069250139
  0.7506837701533513  0.7494357299244712  0.2490503148926919
  0.2498413135318458  0.2498626462378368  0.7510776850795793
  0.7491721428858895  0.2497425141471723  0.7500264309093438
  0.2512028021639310  0.7484076623262936  0.7502882074211215
  0.7499857719821108  0.7506084766308589  0.7490566960054821
  0.9998528090396732  0.0008952564316900  0.0004530376685992
  0.4994838521476623  0.9997691983625501  0.0019435530117278
  0.9995396276046691  0.5003814805363476  0.0003446876020448
  0.5004538963803213  0.5006576286796474  0.9996561984803094
  0.9999252882743050  0.0004139636642293  0.5001677099336419
  0.5003650552657817  0.9994781389130694  0.5007768938403814
  0.9985783129679362  0.4994703951020654  0.5007688876698424
  0.4997969412332992  0.4996358098861649  0.5008637615115248

  0.00000000E+00  0.00000000E+00  0.00000000E+00
  0.00000000E+00  0.00000000E+00  0.00000000E+00
  0.00000000E+00  0.00000000E+00  0.00000000E+00
  0.00000000E+00  0.00000000E+00  0.00000000E+00
  0.00000000E+00  0.00000000E+00  0.00000000E+00
  0.00000000E+00  0.00000000E+00  0.00000000E+00
  0.00000000E+00  0.00000000E+00  0.00000000E+00
  0.00000000E+00  0.00000000E+00  0.00000000E+00
  0.00000000E+00  0.00000000E+00  0.00000000E+00
  0.00000000E+00  0.00000000E+00  0.00000000E+00
  0.00000000E+00  0.00000000E+00  0.00000000E+00
  0.00000000E+00  0.00000000E+00  0.00000000E+00
  0.00000000E+00  0.00000000E+00  0.00000000E+00
  0.00000000E+00  0.00000000E+00  0.00000000E+00
  0.00000000E+00  0.00000000E+00  0.00000000E+00
  0.00000000E+00  0.00000000E+00  0.00000000E+00
