Pb Te                                   
   1.0000000000000000     
     0.0000000000000000    6.4144152196540016    6.4144152196540016
     6.4144152196540016    0.0000000000000000    6.4144152196540016
     6.4144152196540016    6.4144152196540016    0.0000000000000000
   Pb   Te
     8     8
Direct
  0.2498777951400767  0.2500275600665155  0.2502254339806392
  0.7499757696289013  0.2499803160075921  0.2501766237174936
  0.2498924915576726  0.7499435013278677  0.2502874065033261
  0.7498634182300704  0.7499595933086591  0.2502418048138630
  0.2498638079488745  0.2499643637529607  0.7502356397071245
  0.7498955530274486  0.2499434755755749  0.7502860192630657
  0.2499761160778850  0.7499827661536226  0.7501764171447344
  0.7498779508721503  0.7500279113069376  0.7502336786370399
 -0.0000789675650041 -0.0000712402872294  0.0002534620668408
  0.4998572497740849  0.9999953753996665  0.0002560939764112
  0.9999224338174385  0.5000079622960590  0.0002037513847396
  0.4999076686372135  0.4999925194658769  0.0002386535557786
 -0.0000910588313598 -0.0000074207147048  0.5002382404761094
  0.4999216944589503  0.0000079451119132  0.5002030069068322
  0.9998577395061072  0.4999952649317562  0.5002547767229217
  0.4999210596120827  0.4999293486478681  0.5002528854676858

  0.00000000E+00  0.00000000E+00  0.00000000E+00
  0.00000000E+00  0.00000000E+00  0.00000000E+00
  0.00000000E+00  0.00000000E+00  0.00000000E+00
  0.00000000E+00  0.00000000E+00  0.00000000E+00
  0.00000000E+00  0.00000000E+00  0.00000000E+00
  0.00000000E+00  0.00000000E+00  0.00000000E+00
  0.00000000E+00  0.00000000E+00  0.00000000E+00
  0.00000000E+00  0.00000000E+00  0.00000000E+00
  0.00000000E+00  0.00000000E+00  0.00000000E+00
  0.00000000E+00  0.00000000E+00  0.00000000E+00
  0.00000000E+00  0.00000000E+00  0.00000000E+00
  0.00000000E+00  0.00000000E+00  0.00000000E+00
  0.00000000E+00  0.00000000E+00  0.00000000E+00
  0.00000000E+00  0.00000000E+00  0.00000000E+00
  0.00000000E+00  0.00000000E+00  0.00000000E+00
  0.00000000E+00  0.00000000E+00  0.00000000E+00
