generated by phonopy                    
   1.0000000000000000     
     0.0000000000000000    5.4358117995420603    5.4358117995420603
     5.4358117995420603    0.0000000000000000    5.4358117995420603
     5.4358117995420603    5.4358117995420603    0.0000000000000000
   Si
    16
Direct
  0.1250338909248967  0.1251283755854686  0.1254409399258449
  0.6250344446992457  0.1251295635272456  0.1254403435482487
  0.1250344087202393  0.6251279617981211  0.1254420849101194
  0.6250337903401402  0.6251293929520827  0.1254425892312554
  0.1250339705207821  0.1251275948021942  0.6254409851074882
  0.6250333041888325  0.1251297048231379  0.6254410813688267
  0.1250333213648744  0.6251282919669450  0.6254423531890865
  0.6250342645616200  0.6251295828773777  0.6254418153429384
  0.0000344559919583  0.0001279634868538  0.0004409276045365
  0.5000340014122955  0.0001294032230348  0.0004409922748678
  0.0000339373221934  0.5001283974723663  0.0004422325812641
  0.5000345692873154  0.5001296002986777  0.0004417577170841
  0.0000334496237144  0.0001283756335013  0.5004408717982685
  0.5000341651517743  0.0001297384754295  0.5004403368840968
  0.0000343894957666  0.5001276519945534  0.5004420643281193
  0.5000334153757393  0.5001297636967266  0.5004425185125640

  0.00000000E+00  0.00000000E+00  0.00000000E+00
  0.00000000E+00  0.00000000E+00  0.00000000E+00
  0.00000000E+00  0.00000000E+00  0.00000000E+00
  0.00000000E+00  0.00000000E+00  0.00000000E+00
  0.00000000E+00  0.00000000E+00  0.00000000E+00
  0.00000000E+00  0.00000000E+00  0.00000000E+00
  0.00000000E+00  0.00000000E+00  0.00000000E+00
  0.00000000E+00  0.00000000E+00  0.00000000E+00
  0.00000000E+00  0.00000000E+00  0.00000000E+00
  0.00000000E+00  0.00000000E+00  0.00000000E+00
  0.00000000E+00  0.00000000E+00  0.00000000E+00
  0.00000000E+00  0.00000000E+00  0.00000000E+00
  0.00000000E+00  0.00000000E+00  0.00000000E+00
  0.00000000E+00  0.00000000E+00  0.00000000E+00
  0.00000000E+00  0.00000000E+00  0.00000000E+00
  0.00000000E+00  0.00000000E+00  0.00000000E+00
