Pb Te 
1.0000000000000000
     0.0000000000000000    6.5417936101197425    6.5417936101197425
     6.5417936101197425    0.0000000000000000    6.5417936101197425
     6.5417936101197425    6.5417936101197425    0.0000000000000000
Pb  Te 
   8   8
Direct
  0.2485942839225336  0.2514406900616890  0.2502941205722605
  0.7512188254568865  0.2499042295166206  0.2499527028010421
  0.2497460288823937  0.7495754219302270  0.2505430069250164
  0.7506837701533545  0.7494357299244701  0.2490503148926886
  0.2498413135318466  0.2498626462378342  0.7510776850795773
  0.7491721428858903  0.2497425141471734  0.7500264309093416
  0.2512028021639343  0.7484076623262911  0.7502882074211237
  0.7499857719821099  0.7506084766308615  0.7490566960054830
 -0.0001471909603273  0.0008952564316926  0.0004530376685972
  0.4994838521476593 -0.0002308016374480  0.0019435530117308
 -0.0004603723953295  0.5003814805363492  0.0003446876020463
  0.5004538963803247  0.5006576286796478 -0.0003438015196903
 -0.0000747117256979  0.0004139636642326  0.5001677099336395
  0.5003650552657836 -0.0005218610869337  0.5007768938403808
 -0.0014216870320671  0.4994703951020644  0.5007688876698398
  0.4997969412333014  0.4996358098861636  0.5008637615115257
