generated by phonopy                    
   1.0000000000000000     
     0.0000000000000000    5.4437023729394527    5.4437023729394527
     5.4437023729394527    0.0000000000000000    5.4437023729394527
     5.4437023729394527    5.4437023729394527    0.0000000000000000
   Si
    16
Direct
  0.1250339086909814  0.1251284283084432  0.1254412078193060
  0.6250343165583850  0.1251292682763609  0.1254408402180710
  0.1250343722925292  0.6251281971142869  0.1254418615701209
  0.6250339136889074  0.6251294349198969  0.1254420888058323
  0.1250340962695091  0.1251281864037177  0.6254409043598436
  0.6250336022618400  0.1251294542360277  0.6254411223539853
  0.1250336437268384  0.6251284275689386  0.6254421346577473
  0.6250341145342687  0.6251293203361544  0.6254417472943025
  0.0000343291810586  0.0001281916534119  0.0004409581203107
  0.5000338559568288  0.0001294151415845  0.0004411558460520
  0.0000339100585215  0.5001284054658961  0.0004421587350983
  0.5000343404682958  0.5001292850475675  0.0004417639157376
  0.0000336060450078  0.0001284194616982  0.5004411813292722
  0.5000340568963381  0.0001292743079895  0.5004408167642534
  0.0000340951781693  0.5001281884286441  0.5004418485472111
  0.5000336171739093  0.5001294659431048  0.5004421039874651

  0.00000000E+00  0.00000000E+00  0.00000000E+00
  0.00000000E+00  0.00000000E+00  0.00000000E+00
  0.00000000E+00  0.00000000E+00  0.00000000E+00
  0.00000000E+00  0.00000000E+00  0.00000000E+00
  0.00000000E+00  0.00000000E+00  0.00000000E+00
  0.00000000E+00  0.00000000E+00  0.00000000E+00
  0.00000000E+00  0.00000000E+00  0.00000000E+00
  0.00000000E+00  0.00000000E+00  0.00000000E+00
  0.00000000E+00  0.00000000E+00  0.00000000E+00
  0.00000000E+00  0.00000000E+00  0.00000000E+00
  0.00000000E+00  0.00000000E+00  0.00000000E+00
  0.00000000E+00  0.00000000E+00  0.00000000E+00
  0.00000000E+00  0.00000000E+00  0.00000000E+00
  0.00000000E+00  0.00000000E+00  0.00000000E+00
  0.00000000E+00  0.00000000E+00  0.00000000E+00
  0.00000000E+00  0.00000000E+00  0.00000000E+00
