generated by phonopy                    
   1.0000000000000000     
     0.0000000000000000    5.4358117995420603    5.4358117995420603
     5.4358117995420603    0.0000000000000000    5.4358117995420603
     5.4358117995420603    5.4358117995420603    0.0000000000000000
   Si
    16
Direct
  0.1250338909248954  0.1251283755854716  0.1254409399258481
  0.6250344446992485  0.1251295635272427  0.1254403435482509
  0.1250344087202388  0.6251279617981197  0.1254420849101222
  0.6250337903401370  0.6251293929520831  0.1254425892312585
  0.1250339705207816  0.1251275948021924  0.6254409851074915
  0.6250333041888355  0.1251297048231365  0.6254410813688253
  0.1250333213648773  0.6251282919669483  0.6254423531890848
  0.6250342645616175  0.6251295828773786  0.6254418153429351
  0.0000344559919567  0.0001279634868567  0.0004409276045334
  0.5000340014122936  0.0001294032230353  0.0004409922748652
  0.0000339373221929  0.5001283974723636  0.0004422325812615
  0.5000345692873133  0.5001296002986788  0.0004417577170867
  0.0000334496237163  0.0001283756335036  0.5004408717982671
  0.5000341651517766  0.0001297384754329  0.5004403368840991
  0.0000343894957690  0.5001276519945511  0.5004420643281163
  0.5000334153757390  0.5001297636967285  0.5004425185125644

  0.00000000E+00  0.00000000E+00  0.00000000E+00
  0.00000000E+00  0.00000000E+00  0.00000000E+00
  0.00000000E+00  0.00000000E+00  0.00000000E+00
  0.00000000E+00  0.00000000E+00  0.00000000E+00
  0.00000000E+00  0.00000000E+00  0.00000000E+00
  0.00000000E+00  0.00000000E+00  0.00000000E+00
  0.00000000E+00  0.00000000E+00  0.00000000E+00
  0.00000000E+00  0.00000000E+00  0.00000000E+00
  0.00000000E+00  0.00000000E+00  0.00000000E+00
  0.00000000E+00  0.00000000E+00  0.00000000E+00
  0.00000000E+00  0.00000000E+00  0.00000000E+00
  0.00000000E+00  0.00000000E+00  0.00000000E+00
  0.00000000E+00  0.00000000E+00  0.00000000E+00
  0.00000000E+00  0.00000000E+00  0.00000000E+00
  0.00000000E+00  0.00000000E+00  0.00000000E+00
  0.00000000E+00  0.00000000E+00  0.00000000E+00
