generated by phonopy
   1.0
     0.0000000000000000    5.4358117995420600    5.4358117995420600
     5.4358117995420600    0.0000000000000000    5.4358117995420600
     5.4358117995420600    5.4358117995420600    0.0000000000000000
Si
  16
Direct
  0.1255942839225336  0.1254406900616890  0.1252941205722605
  0.6249218825456886  0.1249042295166206  0.1259527028010421
  0.1247460288823937  0.6249575421930227  0.1255430069250164
  0.6256837701533545  0.6244357299244701  0.1244503148926886
  0.1248413135318466  0.1258626462378342  0.6258776850795773
  0.6251721428858903  0.1247425141471734  0.6255264309093416
  0.1252028021639343  0.6254076623262911  0.6252882074211237
  0.6253857719821099  0.6256084766308615  0.6254566960054830
 -0.0001471909603273  0.0008952564316926  0.0004530376685972
  0.4994838521476593 -0.0002308016374480  0.0006435530117308
 -0.0004603723953295  0.5003814805363492  0.0003446876020463
  0.5004538963803247  0.5006576286796478 -0.0003438015196903
 -0.0000747117256979  0.0004139636642326  0.5001677099336395
  0.5003650552657836 -0.0005218610869337  0.5007768938403808
 -0.0004216870320671  0.4994703951020644  0.5007688876698398
  0.4997969412333014  0.4996358098861636  0.5008637615115257
