generated by phonopy                    
   1.0000000000000000     
     0.0000000000000000    5.4358117995420603    5.4358117995420603
     5.4358117995420603    0.0000000000000000    5.4358117995420603
     5.4358117995420603    5.4358117995420603    0.0000000000000000
   Si
    16
Direct
  0.1249661301416343  0.1248713808936727  0.1245583762850495
  0.6249658686408853  0.1248712752524394  0.1245584645729493
  0.1249659572652746  0.6248712486780299  0.1245585508686579
  0.6249659931960814  0.6248707208741758  0.1245587085722317
  0.1249660242307034  0.1248709692366696  0.6245588194450533
  0.6249659960489170  0.1248711159848467  0.6245585643686739
  0.1249659801629831  0.6248713124565595  0.6245582255319430
  0.6249661271957417  0.6248712955778180  0.6245583239542576
 -0.0000341184985410  0.9998712608695386  0.9995587722472090
  0.4999662600177911 -0.0001291751122267  0.9995585164030514
 -0.0000340189909156  0.4998714517366328  0.9995582215627912
  0.4999659544960086  0.4998712185735093 -0.0004417272353102
 -0.0000340847431765  0.9998713093842079  0.4995585043070186
  0.4999660250872871 -0.0001287482321503  0.4995584816255186
 -0.0000338982238141  0.4998709596509101  0.4995585847926164
  0.4999660249917516  0.4998710415616438  0.4995587183736794

  0.00000000E+00  0.00000000E+00  0.00000000E+00
  0.00000000E+00  0.00000000E+00  0.00000000E+00
  0.00000000E+00  0.00000000E+00  0.00000000E+00
  0.00000000E+00  0.00000000E+00  0.00000000E+00
  0.00000000E+00  0.00000000E+00  0.00000000E+00
  0.00000000E+00  0.00000000E+00  0.00000000E+00
  0.00000000E+00  0.00000000E+00  0.00000000E+00
  0.00000000E+00  0.00000000E+00  0.00000000E+00
  0.00000000E+00  0.00000000E+00  0.00000000E+00
  0.00000000E+00  0.00000000E+00  0.00000000E+00
  0.00000000E+00  0.00000000E+00  0.00000000E+00
  0.00000000E+00  0.00000000E+00  0.00000000E+00
  0.00000000E+00  0.00000000E+00  0.00000000E+00
  0.00000000E+00  0.00000000E+00  0.00000000E+00
  0.00000000E+00  0.00000000E+00  0.00000000E+00
  0.00000000E+00  0.00000000E+00  0.00000000E+00
