Pb Te                                   
   1.0000000000000000     
     0.0000000000000000    6.5417936101197425    6.5417936101197425
     6.5417936101197425    0.0000000000000000    6.5417936101197425
     6.5417936101197425    6.5417936101197425    0.0000000000000000
   Pb   Te
     8     8
Direct
  0.2499128811562041  0.2499722685813477  0.2503079286825655
  0.7499164591737523  0.2499732760175663  0.2503033033686933
  0.2499143629811133  0.7499702868783533  0.2503100315019462
  0.7499095595604686  0.7499736733785997  0.2503071339078517
  0.2499094410700918  0.2499746364830615  0.7503063987134611
  0.7499145873774160  0.2499705895090845  0.7503097265173434
  0.2499159619228364  0.7499731220950665  0.7503035153094445
  0.7499132057284452  0.7499718220224332  0.7503090547989105
  0.9998911976147326  0.9999862364566374  0.0003513469017857
  0.4998913934109045  0.9999872469465081  0.0003505144165533
  0.9998922369171390  0.4999879652262224  0.0003509907605975
  0.4998917219898067  0.4999876032087168  0.0003502270676393
  0.9998907316691210  0.9999886063025097  0.5003506742830026
  0.4998935032410025  0.9999879772517887  0.5003499626940270
  0.9998905153763634  0.4999875485378220  0.5003516978425468
  0.4998929627031813  0.4999863834552179  0.5003513875582308

  0.00000000E+00  0.00000000E+00  0.00000000E+00
  0.00000000E+00  0.00000000E+00  0.00000000E+00
  0.00000000E+00  0.00000000E+00  0.00000000E+00
  0.00000000E+00  0.00000000E+00  0.00000000E+00
  0.00000000E+00  0.00000000E+00  0.00000000E+00
  0.00000000E+00  0.00000000E+00  0.00000000E+00
  0.00000000E+00  0.00000000E+00  0.00000000E+00
  0.00000000E+00  0.00000000E+00  0.00000000E+00
  0.00000000E+00  0.00000000E+00  0.00000000E+00
  0.00000000E+00  0.00000000E+00  0.00000000E+00
  0.00000000E+00  0.00000000E+00  0.00000000E+00
  0.00000000E+00  0.00000000E+00  0.00000000E+00
  0.00000000E+00  0.00000000E+00  0.00000000E+00
  0.00000000E+00  0.00000000E+00  0.00000000E+00
  0.00000000E+00  0.00000000E+00  0.00000000E+00
  0.00000000E+00  0.00000000E+00  0.00000000E+00
