Pb Te                                   
   1.0000000000000000     
     0.0000000000000000    6.5417936101197425    6.5417936101197425
     6.5417936101197425    0.0000000000000000    6.5417936101197425
     6.5417936101197425    6.5417936101197425    0.0000000000000000
   Pb   Te
     8     8
Direct
  0.2499142306982358  0.2499707091852892  0.2503076717095186
  0.7499175256992201  0.2499729862663633  0.2503014385354098
  0.2499159223771718  0.7499689373363216  0.2503095646748794
  0.7499098493116714  0.7499726068531318  0.2503060458488329
  0.2499097308212948  0.2499735699575939  0.7503053106544422
  0.7499161467734742  0.2499692399670528  0.7503092596902766
  0.2499170284483040  0.7499728323438637  0.7503016504761609
  0.7499145552704769  0.7499702626263750  0.7503087978258635
  0.9998901165437347  0.9999869959503876  0.0003525624064246
  0.4998901631019257  0.9999884412875352  0.0003513160307220
  0.9998914774233888  0.4999890462972200  0.0003518846879890
  0.4998905276487798  0.4999888335176956  0.0003509927138563
  0.9998895373280939  0.9999898366114887  0.5003514399292194
  0.4998927437472523  0.9999890583227865  0.5003508566214186
  0.9998892850673845  0.4999887428788489  0.5003524994567156
  0.4998918816321837  0.4999871429489681  0.5003526030628700

  0.00000000E+00  0.00000000E+00  0.00000000E+00
  0.00000000E+00  0.00000000E+00  0.00000000E+00
  0.00000000E+00  0.00000000E+00  0.00000000E+00
  0.00000000E+00  0.00000000E+00  0.00000000E+00
  0.00000000E+00  0.00000000E+00  0.00000000E+00
  0.00000000E+00  0.00000000E+00  0.00000000E+00
  0.00000000E+00  0.00000000E+00  0.00000000E+00
  0.00000000E+00  0.00000000E+00  0.00000000E+00
  0.00000000E+00  0.00000000E+00  0.00000000E+00
  0.00000000E+00  0.00000000E+00  0.00000000E+00
  0.00000000E+00  0.00000000E+00  0.00000000E+00
  0.00000000E+00  0.00000000E+00  0.00000000E+00
  0.00000000E+00  0.00000000E+00  0.00000000E+00
  0.00000000E+00  0.00000000E+00  0.00000000E+00
  0.00000000E+00  0.00000000E+00  0.00000000E+00
  0.00000000E+00  0.00000000E+00  0.00000000E+00
