Pb Te                                   
   1.0000000000000000     
     0.0000000000000000    6.4425165964224602    6.4425165964224602
     6.4425165964224602    0.0000000000000000    6.4425165964224602
     6.4425165964224602    6.4425165964224602    0.0000000000000000
   Pb   Te
     8     8
Direct
  0.2498853766072468  0.2500135806199672  0.2502227106262258
  0.7499576544165023  0.2499772109231979  0.2501882141629856
  0.2498951093953893  0.7499509203165756  0.2502681387834655
  0.7498739786666339  0.7499630108470562  0.2502363989971066
  0.2498756590565135  0.2499635587075251  0.7502321007831295
  0.7498964773073735  0.2499503873150716  0.7502688207501103
  0.2499593972964562  0.7499798153219691  0.7501874889825842
  0.7498837371651006  0.7500145750033715  0.7502270323965056
  0.9999167386427017 -0.0000522269298977  0.0002504271259265
  0.4998697092882641  0.9999961617288767  0.0002578286723343
  0.9999138022090291  0.5000030011844302  0.0002204413548959
  0.4999017857983521  0.4999891282948712  0.0002454278859455
 -0.0000917283545219 -0.0000111356348458  0.5002433054480951
  0.4999134927461229 -0.0000012057513090  0.5002172506177303
  0.9998739035287331  0.4999945240819771  0.5002490424211753
  0.4999156281226954  0.4999479363220982  0.5002492653163901

  0.00000000E+00  0.00000000E+00  0.00000000E+00
  0.00000000E+00  0.00000000E+00  0.00000000E+00
  0.00000000E+00  0.00000000E+00  0.00000000E+00
  0.00000000E+00  0.00000000E+00  0.00000000E+00
  0.00000000E+00  0.00000000E+00  0.00000000E+00
  0.00000000E+00  0.00000000E+00  0.00000000E+00
  0.00000000E+00  0.00000000E+00  0.00000000E+00
  0.00000000E+00  0.00000000E+00  0.00000000E+00
  0.00000000E+00  0.00000000E+00  0.00000000E+00
  0.00000000E+00  0.00000000E+00  0.00000000E+00
  0.00000000E+00  0.00000000E+00  0.00000000E+00
  0.00000000E+00  0.00000000E+00  0.00000000E+00
  0.00000000E+00  0.00000000E+00  0.00000000E+00
  0.00000000E+00  0.00000000E+00  0.00000000E+00
  0.00000000E+00  0.00000000E+00  0.00000000E+00
  0.00000000E+00  0.00000000E+00  0.00000000E+00
